(set-info :smt-lib-version 2.6)
(set-logic LIA)
(set-info
  :source |
 Generated by PSyCO 0.1
 More info in N. P. Lopes and J. Monteiro. Weakest Precondition Synthesis for
 Compiler Optimizations, VMCAI'14.
|)
(set-info :category "industrial")
(set-info :status unsat)
(declare-fun W_S1_V6 () Bool)
(declare-fun W_S1_V4 () Bool)
(declare-fun W_S1_V2 () Bool)
(declare-fun W_S1_V3 () Bool)
(declare-fun W_S1_V1 () Bool)
(declare-fun R_S1_V6 () Bool)
(declare-fun R_S1_V4 () Bool)
(declare-fun R_S1_V5 () Bool)
(declare-fun R_S1_V2 () Bool)
(declare-fun R_S1_V3 () Bool)
(declare-fun R_S1_V1 () Bool)
(declare-fun R_E2_V1 () Bool)
(declare-fun R_E1_V6 () Bool)
(declare-fun R_E1_V4 () Bool)
(declare-fun R_E1_V5 () Bool)
(declare-fun R_E1_V2 () Bool)
(declare-fun DISJ_W_S1_R_E1 () Bool)
(declare-fun DISJ_W_S1_R_S1 () Bool)
(declare-fun R_E2_V6 () Bool)
(declare-fun R_E2_V4 () Bool)
(declare-fun R_E2_V5 () Bool)
(declare-fun R_E2_V2 () Bool)
(declare-fun DISJ_W_S1_R_E2 () Bool)
(declare-fun W_S1_V5 () Bool)
(declare-fun R_E1_V3 () Bool)
(declare-fun R_E1_V1 () Bool)
(declare-fun R_E2_V3 () Bool)
(assert
 (let
 (($x61497
   (forall
    ((V2_0 Int) (V5_0 Int) 
     (V4_0 Int) (V6_0 Int) 
     (MW_S1_V1 Bool) (MW_S1_V3 Bool) 
     (MW_S1_V2 Bool) (MW_S1_V5 Bool) 
     (MW_S1_V4 Bool) (MW_S1_V6 Bool) 
     (S1_V1_!6750 Int) (S1_V1_!6756 Int) 
     (S1_V1_!6765 Int) (S1_V3_!6751 Int) 
     (S1_V3_!6757 Int) (S1_V3_!6766 Int) 
     (S1_V2_!6752 Int) (S1_V2_!6758 Int) 
     (S1_V2_!6767 Int) (E1_!6747 Int) 
     (E1_!6762 Int) (E1_!6764 Int) 
     (E1_!6771 Int) (S1_V5_!6753 Int) 
     (S1_V5_!6759 Int) (S1_V5_!6768 Int) 
     (E2_!6748 Int) (E2_!6749 Int) 
     (E2_!6763 Int) (S1_V4_!6754 Int) 
     (S1_V4_!6760 Int) (S1_V4_!6769 Int) 
     (S1_V6_!6755 Int) (S1_V6_!6761 Int) 
     (S1_V6_!6770 Int))
    (let ((?x62630 (ite MW_S1_V6 S1_V6_!6770 V6_0)))
    (let ((?x62434 (ite MW_S1_V6 S1_V6_!6761 V6_0)))
    (let (($x61148 (= ?x62434 ?x62630)))
    (let ((?x62808 (ite MW_S1_V4 S1_V4_!6769 V4_0)))
    (let ((?x60910 (ite MW_S1_V4 S1_V4_!6760 V4_0)))
    (let (($x62330 (= ?x60910 ?x62808)))
    (let ((?x61329 (ite MW_S1_V5 S1_V5_!6768 V5_0)))
    (let ((?x60108 (ite MW_S1_V5 S1_V5_!6759 V5_0)))
    (let (($x62394 (= ?x60108 ?x61329)))
    (let ((?x62812 (ite MW_S1_V2 S1_V2_!6767 V2_0)))
    (let ((?x62876 (ite MW_S1_V2 S1_V2_!6758 V2_0)))
    (let (($x62390 (= ?x62876 ?x62812)))
    (let ((?x63112 (ite MW_S1_V3 S1_V3_!6766 E2_!6763)))
    (let ((?x63004 (+ 1 ?x63112)))
    (let ((?x60271 (ite MW_S1_V3 S1_V3_!6751 E2_!6749)))
    (let ((?x62639 (+ 1 ?x60271)))
    (let ((?x63002 (ite MW_S1_V3 S1_V3_!6757 ?x62639)))
    (let (($x63158 (= ?x63002 ?x63004)))
    (let ((?x62576 (+ (- 1) E1_!6771)))
    (let ((?x60917 (ite MW_S1_V1 S1_V1_!6756 E1_!6747)))
    (let (($x61475 (= ?x60917 ?x62576)))
    (let (($x63139 (and $x61475 $x63158 $x62390 $x62394 $x62330 $x61148)))
    (let ((?x63180 (+ (- 2) ?x62808)))
    (let (($x59928 (>= ?x63112 ?x63180)))
    (let (($x62954 (>= E1_!6771 ?x62812)))
    (let (($x59930 (<= ?x62808 ?x63004)))
    (let (($x62317 (not $x59930)))
    (let ((?x63105 (+ (- 1) ?x62812)))
    (let ((?x63165 (ite MW_S1_V1 S1_V1_!6765 E1_!6764)))
    (let (($x63141 (>= ?x63165 ?x63105)))
    (let (($x62700 (<= V2_0 E1_!6764)))
    (let (($x63143 (not $x62700)))
    (let (($x62651 (<= V4_0 E2_!6763)))
    (let (($x63164 (not $x62651)))
    (let (($x62650 (<= V2_0 E1_!6762)))
    (let (($x62660 (not $x62650)))
    (let ((?x60964 (+ (- 1) ?x62876)))
    (let (($x62507 (>= ?x60917 ?x60964)))
    (let ((?x60959 (+ (- 1) ?x60910)))
    (let (($x62529 (>= ?x63002 ?x60959)))
    (let ((?x62702 (ite MW_S1_V4 S1_V4_!6754 V4_0)))
    (let (($x59901 (<= ?x62702 ?x62639)))
    (let (($x60945 (not $x59901)))
    (let (($x61353 (<= V4_0 E2_!6749)))
    (let (($x61409 (not $x61353)))
    (let (($x62278 (<= V2_0 E1_!6747)))
    (let (($x60965 (not $x62278)))
    (let (($x60161 (<= V4_0 E2_!6748)))
    (let (($x62692 (not $x60161)))
    (let
    (($x62871
      (and $x62692 $x60965 $x61409 $x60945 $x62529 $x62507 $x62660 $x63164
      $x63143 $x63141 $x62317 $x62954 $x59928)))
    (let (($x62984 (not $x62871)))
    (let (($x62534 (not MW_S1_V6)))
    (let (($x62683 (or $x62534 W_S1_V6)))
    (let (($x62606 (not MW_S1_V4)))
    (let (($x62841 (or $x62606 W_S1_V4)))
    (let (($x63167 (not MW_S1_V2)))
    (let (($x61291 (or $x63167 W_S1_V2)))
    (let (($x62647 (not MW_S1_V3)))
    (let (($x62649 (or $x62647 W_S1_V3)))
    (let (($x60912 (not MW_S1_V1)))
    (let (($x60171 (or $x60912 W_S1_V1)))
    (let (($x63179 (= S1_V6_!6761 S1_V6_!6770)))
    (let ((?x59996 (ite MW_S1_V6 S1_V6_!6755 V6_0)))
    (let (($x63065 (= ?x59996 V6_0)))
    (let (($x207 (not R_S1_V6)))
    (let (($x62699 (or $x207 $x63065)))
    (let (($x60153 (= ?x62702 V4_0)))
    (let (($x205 (not R_S1_V4)))
    (let (($x60958 (or $x205 $x60153)))
    (let ((?x62578 (ite MW_S1_V5 S1_V5_!6753 V5_0)))
    (let (($x62673 (= ?x62578 V5_0)))
    (let (($x203 (not R_S1_V5)))
    (let (($x63099 (or $x203 $x62673)))
    (let ((?x61375 (ite MW_S1_V2 S1_V2_!6752 V2_0)))
    (let (($x62913 (= ?x61375 V2_0)))
    (let (($x201 (not R_S1_V2)))
    (let (($x62569 (or $x201 $x62913)))
    (let ((?x62459 (+ (- 1) E2_!6763)))
    (let (($x61447 (= ?x60271 ?x62459)))
    (let (($x199 (not R_S1_V3)))
    (let (($x62761 (or $x199 $x61447)))
    (let ((?x62490 (ite MW_S1_V1 S1_V1_!6750 E1_!6747)))
    (let (($x61270 (= ?x62490 E1_!6764)))
    (let (($x197 (not R_S1_V1)))
    (let (($x62324 (or $x197 $x61270)))
    (let (($x62663 (and $x62324 $x62761 $x62569 $x63099 $x60958 $x62699)))
    (let (($x62455 (not $x62663)))
    (let (($x60177 (or $x62455 $x63179)))
    (let (($x60211 (= S1_V6_!6755 S1_V6_!6770)))
    (let (($x62496 (= E2_!6749 E2_!6763)))
    (let (($x61077 (or $x199 $x62496)))
    (let (($x62451 (= E1_!6747 E1_!6764)))
    (let (($x59952 (or $x197 $x62451)))
    (let (($x61341 (and $x59952 $x61077)))
    (let (($x60955 (not $x61341)))
    (let (($x61267 (or $x60955 $x60211)))
    (let (($x60929 (= S1_V6_!6755 S1_V6_!6761)))
    (let (($x59929 (= V6_0 ?x59996)))
    (let (($x60267 (or $x207 $x59929)))
    (let (($x62599 (= V4_0 ?x62702)))
    (let (($x60139 (or $x205 $x62599)))
    (let (($x62795 (= V5_0 ?x62578)))
    (let (($x60066 (or $x203 $x62795)))
    (let (($x60225 (= V2_0 ?x61375)))
    (let (($x61339 (or $x201 $x60225)))
    (let (($x59966 (= E2_!6749 ?x62639)))
    (let (($x62850 (or $x199 $x59966)))
    (let (($x62861 (= E1_!6747 ?x62490)))
    (let (($x61263 (or $x197 $x62861)))
    (let (($x62748 (and $x61263 $x62850 $x61339 $x60066 $x60139 $x60267)))
    (let (($x62473 (not $x62748)))
    (let (($x61453 (or $x62473 $x60929)))
    (let (($x62691 (= S1_V4_!6769 S1_V4_!6760)))
    (let (($x59886 (= E2_!6763 ?x62639)))
    (let (($x62557 (or $x199 $x59886)))
    (let (($x61377 (= E1_!6764 ?x62490)))
    (let (($x62484 (or $x197 $x61377)))
    (let (($x62575 (and $x62484 $x62557 $x61339 $x60066 $x60139 $x60267)))
    (let (($x61363 (not $x62575)))
    (let (($x61333 (or $x61363 $x62691)))
    (let (($x62261 (= S1_V4_!6769 S1_V4_!6754)))
    (let (($x60118 (= E2_!6763 E2_!6749)))
    (let (($x62856 (or $x199 $x60118)))
    (let (($x62560 (= E1_!6764 E1_!6747)))
    (let (($x61331 (or $x197 $x62560)))
    (let (($x62577 (and $x61331 $x62856)))
    (let (($x62928 (not $x62577)))
    (let (($x62471 (or $x62928 $x62261)))
    (let (($x60215 (= S1_V4_!6760 S1_V4_!6754)))
    (let ((?x62489 (+ (- 1) E2_!6749)))
    (let (($x60141 (= ?x60271 ?x62489)))
    (let (($x61078 (or $x199 $x60141)))
    (let (($x62736 (= ?x62490 E1_!6747)))
    (let (($x60981 (or $x197 $x62736)))
    (let (($x61351 (and $x60981 $x61078 $x62569 $x63099 $x60958 $x62699)))
    (let (($x62539 (not $x61351)))
    (let (($x61152 (or $x62539 $x60215)))
    (let (($x62713 (= E1_!6762 E1_!6747)))
    (let (($x128 (not R_E2_V1)))
    (let (($x60102 (or $x128 $x62713)))
    (let (($x60185 (not $x60102)))
    (let (($x62828 (or $x60185 $x60118)))
    (let (($x62295 (= E2_!6763 E2_!6748)))
    (let (($x59862 (or $x60185 $x62295)))
    (let (($x61289 (= E2_!6749 E2_!6748)))
    (let (($x62345 (= S1_V5_!6759 S1_V5_!6768)))
    (let (($x62929 (or $x62455 $x62345)))
    (let (($x62425 (= S1_V5_!6759 S1_V5_!6753)))
    (let (($x60082 (or $x62539 $x62425)))
    (let (($x63159 (= S1_V5_!6753 S1_V5_!6768)))
    (let (($x62968 (or $x60955 $x63159)))
    (let (($x62510 (= E1_!6771 E1_!6762)))
    (let (($x63181 (= ?x62630 V6_0)))
    (let (($x123 (not R_E1_V6)))
    (let (($x63123 (or $x123 $x63181)))
    (let (($x62881 (= ?x62808 V4_0)))
    (let (($x121 (not R_E1_V4)))
    (let (($x61124 (or $x121 $x62881)))
    (let (($x60974 (= ?x61329 V5_0)))
    (let (($x119 (not R_E1_V5)))
    (let (($x62329 (or $x119 $x60974)))
    (let (($x62869 (= ?x62812 V2_0)))
    (let (($x117 (not R_E1_V2)))
    (let (($x62633 (or $x117 $x62869)))
    (let (($x61301 (and $x62633 $x62329 $x61124 $x63123)))
    (let (($x61164 (not $x61301)))
    (let (($x62776 (or $x61164 $x62510)))
    (let (($x62772 (= E1_!6764 E1_!6771)))
    (let (($x63050 (= V6_0 ?x62630)))
    (let (($x62845 (or $x123 $x63050)))
    (let (($x62466 (= V4_0 ?x62808)))
    (let (($x63145 (or $x121 $x62466)))
    (let (($x63061 (= V5_0 ?x61329)))
    (let (($x62428 (or $x119 $x63061)))
    (let (($x63090 (= V2_0 ?x62812)))
    (let (($x59858 (or $x117 $x63090)))
    (let (($x61194 (and $x59858 $x62428 $x63145 $x62845)))
    (let (($x60064 (not $x61194)))
    (let (($x60952 (or $x60064 $x62772)))
    (let (($x62695 (= E1_!6764 E1_!6762)))
    (let (($x60903 (= E1_!6747 E1_!6771)))
    (let (($x62571 (or $x60064 $x60903)))
    (let (($x60104 (= E1_!6747 E1_!6762)))
    (let (($x62697 (= S1_V2_!6767 S1_V2_!6752)))
    (let (($x62914 (or $x62928 $x62697)))
    (let (($x62636 (= S1_V2_!6758 S1_V2_!6767)))
    (let (($x59910 (or $x62455 $x62636)))
    (let (($x61027 (= S1_V2_!6758 S1_V2_!6752)))
    (let (($x61461 (or $x62539 $x61027)))
    (let (($x62579 (= S1_V3_!6766 S1_V3_!6757)))
    (let (($x60932 (or $x61363 $x62579)))
    (let (($x60111 (= S1_V3_!6766 S1_V3_!6751)))
    (let (($x60201 (or $x62928 $x60111)))
    (let (($x62844 (= S1_V3_!6751 S1_V3_!6757)))
    (let (($x61285 (or $x62473 $x62844)))
    (let (($x60973 (= S1_V1_!6765 S1_V1_!6756)))
    (let (($x60151 (or $x61363 $x60973)))
    (let (($x62613 (= S1_V1_!6765 S1_V1_!6750)))
    (let (($x62346 (or $x62928 $x62613)))
    (let (($x61010 (= S1_V1_!6750 S1_V1_!6756)))
    (let (($x61100 (or $x62473 $x61010)))
    (let
    (($x61118
      (and $x61100 $x62346 $x60151 $x61285 $x60201 $x60932 $x61461 $x59910
      $x62914 $x60104 $x62571 $x62560 $x62695 $x60952 $x62776 $x62968 $x60082
      $x62929 $x61289 $x59862 $x62828 $x61152 $x62471 $x61333 $x61453 $x61267
      $x60177 $x60171 $x62649 $x61291 $x62841 $x62683)))
    (let (($x60927 (not $x61118))) (or $x60927 $x62984 $x63139)))))))))))))))))))))))))))))))))))))))))))))))))))))))))))))))))))))))))))))))))))))))))))))))))))))))))))))))))))))))))))))))))))))))))))))))))))))))))))))))))))))))))))))))))))))))))))))))))))))))))))))))
 (let (($x56 (and W_S1_V6 R_E1_V6)))
 (let (($x54 (and W_S1_V4 R_E1_V4)))
 (let (($x50 (and W_S1_V2 R_E1_V2)))
 (let (($x61166 (or $x50 R_E1_V5 $x54 $x56)))
 (let (($x62998 (not $x61166)))
 (let (($x62988 (= DISJ_W_S1_R_E1 $x62998)))
 (let (($x40 (and W_S1_V6 R_S1_V6)))
 (let (($x38 (and W_S1_V4 R_S1_V4)))
 (let (($x34 (and W_S1_V2 R_S1_V2)))
 (let (($x32 (and W_S1_V3 R_S1_V3)))
 (let (($x30 (and W_S1_V1 R_S1_V1)))
 (let (($x66 (or $x30 $x32 $x34 R_S1_V5 $x38 $x40)))
 (let (($x67 (not $x66)))
 (let (($x68 (= DISJ_W_S1_R_S1 $x67)))
 (let (($x24 (and W_S1_V6 R_E2_V6)))
 (let (($x21 (and W_S1_V4 R_E2_V4)))
 (let (($x16 (and W_S1_V2 R_E2_V2)))
 (let (($x10 (and W_S1_V1 R_E2_V1)))
 (let (($x62681 (or $x10 $x16 R_E2_V5 $x21 $x24)))
 (let (($x62401 (not $x62681)))
 (let (($x62670 (= DISJ_W_S1_R_E2 $x62401)))
 (let (($x59799 (not W_S1_V4)))
 (let (($x59796 (not W_S1_V2)))
 (let (($x199 (not R_S1_V3)))
 (let (($x197 (not R_S1_V1)))
 (let (($x63264 (and $x197 $x199 $x59796 $x59799)))
 (let (($x59792 (not W_S1_V3)))
 (let (($x62952 (and $x59792 $x59799)))
 (let (($x59788 (not W_S1_V1)))
 (let (($x59949 (and $x59788 $x59796)))
 (let (($x63154 (and $x197 DISJ_W_S1_R_S1)))
 (let (($x62781 (and $x199 DISJ_W_S1_R_S1)))
 (let (($x63053 (and $x59799 DISJ_W_S1_R_S1)))
 (let (($x60948 (and $x59796 DISJ_W_S1_R_S1)))
 (let
 (($x64679 (or $x60948 $x63053 $x62781 $x63154 $x59949 $x62952 $x63264)))
 (let (($x115 (not R_E1_V3)))
 (let (($x113 (not R_E1_V1)))
 (let (($x130 (not R_E2_V3)))
 (and $x130 $x113 $x115 $x64679 W_S1_V5 $x62670 $x68 $x62988 $x61497)))))))))))))))))))))))))))))))))))))))))
(assert
 (let (($x59796 (not W_S1_V2)))
 (let (($x60953 (and $x59796 DISJ_W_S1_R_E1))) (not $x60953))))
(check-sat)
(exit)

